certificates/rado_a11_c175_N21.cnf
c Rad2 upper bound instance: x1 + 11*x2 - x3 = 175, interval [1,21]
p cnf 21 80
1 2 16 0
-1 -2 -16 0
1 13 17 0
-1 -13 -17 0
2 3 16 0
-2 -3 -16 0
2 14 17 0
-2 -14 -17 0
3 4 16 0
-3 -4 -16 0
3 15 17 0
-3 -15 -17 0
4 5 16 0
-4 -5 -16 0
4 16 17 0
-4 -16 -17 0
5 6 16 0
-5 -6 -16 0
5 17 0
-5 -17 0
6 7 16 0
-6 -7 -16 0
6 17 18 0
-6 -17 -18 0
7 8 16 0
-7 -8 -16 0
7 17 19 0
-7 -17 -19 0
8 9 16 0
-8 -9 -16 0
8 17 20 0
-8 -17 -20 0
9 10 16 0
-9 -10 -16 0
9 17 21 0
-9 -17 -21 0
10 11 16 0
-10 -11 -16 0
1 11 15 0
-1 -11 -15 0
11 12 16 0
-11 -12 -16 0
2 12 15 0
-2 -12 -15 0
12 13 16 0
-12 -13 -16 0
3 13 15 0
-3 -13 -15 0
13 14 16 0
-13 -14 -16 0
4 14 15 0
-4 -14 -15 0
14 15 16 0
-14 -15 -16 0
5 15 0
-5 -15 0
15 16 0
-15 -16 0
6 15 16 0
-6 -15 -16 0
16 17 0
-16 -17 0
7 15 17 0
-7 -15 -17 0
16 17 18 0
-16 -17 -18 0
8 15 18 0
-8 -15 -18 0
16 18 19 0
-16 -18 -19 0
9 15 19 0
-9 -15 -19 0
16 19 20 0
-16 -19 -20 0
10 15 20 0
-10 -15 -20 0
16 20 21 0
-16 -20 -21 0
11 15 21 0
-11 -15 -21 0
