certificates/rado_a11_c175_N21.drat
-20 -21 0
d -20 -16 -21 0
-17 -21 0
-21 0
17 0
-5 0
-16 0
4 0
6 0
15 0
20 0
-14 0
-18 0
-3 0
-7 0
-10 0
-8 0
13 0
19 0
2 0
0
